# Objective value = 0
A_0_0 0
A_1_0 0
A_1_1 0
A_2_0 1
A_2_1 0
A_2_2 0
A_3_0 0
A_3_1 0
A_3_2 0
A_3_3 1
z1_0 0
z2_0 0
z3_0 0
z4_0 0
z11_0 0
z22_0 0
z33_0 0
z44_0 0
z1_1 0
z2_1 0
z3_1 0
z4_1 0
z11_1 0
z22_1 0
z33_1 0
z44_1 0
z1_2 0
z2_2 0
z3_2 0
z4_2 0
z11_2 0
z22_2 0
z33_2 0
z44_2 0
z1_3 0
z2_3 0
z3_3 0
z4_3 0
z11_3 0
z22_3 0
z33_3 0
z44_3 0
norm1_ 0
norm2_ 0
norm3_ 0
norm4_ 0
norm11_ 0
norm22_ 0
norm33_ 0
norm44_ 0
